NAME: dataset8.tsp
TYPE: TSP
COMMENT: 8 random locations
DIMENSION: 8
EDGE_WEIGHT_TYPE: EUC_2D
NODE_COORD_SECTION
1 4817.4959823198 374.7517922672
2 3778.2834428015 1689.0238656599
3 3282.7306164242 36.0938518405
4 3104.1052734645 3935.9372461708
5 4587.6279943830 1106.9060428693
6 1479.4873989007 1412.9731301555
7 4753.2544280385 3350.4112718918
8 4247.0564551397 4176.9702684185
EOF
